c turning on binary mode checking
c parsing input formula with 259840 variables and 1039914 clauses
c finished parsing, read 53846020 bytes from proof file
c detected empty clause; start verification via backward checking
c 103920 of 1039914 clauses in core                            
c 213731 of 970046 lemmas in core using 4657895 resolution steps
c 0 RAT lemmas in core; 56473 redundant literals in core lemmas
s VERIFIED
c verification time: 20.254 seconds
